feasible solution found by trivial heuristic after 0.5 seconds, objective value 0.000000e+00
presolving:
(round 1, fast)       12133 del vars, 9143 del conss, 0 add conss, 9364 chg bounds, 0 chg sides, 0 chg coeffs, 0 upgd conss, 0 impls, 2990 clqs
(round 2, fast)       13025 del vars, 9143 del conss, 0 add conss, 9364 chg bounds, 0 chg sides, 0 chg coeffs, 0 upgd conss, 0 impls, 2990 clqs
(round 3, medium)     13025 del vars, 11075 del conss, 0 add conss, 9364 chg bounds, 0 chg sides, 1932 chg coeffs, 0 upgd conss, 0 impls, 2990 clqs
(round 4, exhaustive) 13025 del vars, 11075 del conss, 0 add conss, 9364 chg bounds, 0 chg sides, 1932 chg coeffs, 5244 upgd conss, 0 impls, 2990 clqs
(round 5, medium)     13025 del vars, 13329 del conss, 3864 add conss, 9364 chg bounds, 3864 chg sides, 175812 chg coeffs, 5244 upgd conss, 0 impls, 4922 clqs
(round 6, exhaustive) 98033 del vars, 13329 del conss, 3864 add conss, 9364 chg bounds, 3864 chg sides, 175812 chg coeffs, 5244 upgd conss, 0 impls, 2990 clqs
(round 7, fast)       99965 del vars, 17193 del conss, 3864 add conss, 9364 chg bounds, 3864 chg sides, 175812 chg coeffs, 5244 upgd conss, 0 impls, 1058 clqs
   (4.5s) probing: 51/2254 (2.3%) - 0 fixings, 0 aggregations, 0 implications, 0 bound changes
   (4.5s) probing aborted: 50/50 successive totally useless probings
   (4.5s) symmetry computation started: requiring (bin +, int -, cont +), (fixed: bin -, int +, cont -)
   (4.5s) no symmetry present
presolving (8 rounds: 8 fast, 5 medium, 3 exhaustive):
 99965 deleted vars, 17193 deleted constraints, 3864 added constraints, 9364 tightened bounds, 0 added holes, 3864 changed sides, 175812 changed coefficients
 0 implications, 1058 cliques
presolved problem has 2254 variables (2254 bin, 0 int, 0 impl, 0 cont) and 2990 constraints
   1058 constraints of type <setppc>
   1932 constraints of type <logicor>
Presolving Time: 4.23

 time | node  | left  |LP iter|LP it/n|mem/heur|mdpt |vars |cons |rows |cuts |sepa|confs|strbr|  dualbound   | primalbound  |  gap   | compl. 
t 4.6s|     1 |     0 |     0 |     - | trivial|   0 |2254 |2990 |   0 |   0 |  0 |   0 |   0 | 8.674349e+07 | 1.301089e+06 |6566.99%| unknown
p 4.6s|     1 |     0 |     0 |     - |   locks|   0 |2254 |2990 |2990 |   0 |  0 |   0 |   0 | 8.674349e+07 | 1.774324e+07 | 388.88%| unknown
i 4.6s|     1 |     0 |     0 |     - |  oneopt|   0 |2254 |2990 |2990 |   0 |  0 |   0 |   0 | 8.674349e+07 | 1.794413e+07 | 383.41%| unknown
  4.7s|     1 |     0 |  1005 |     - |   583M |   0 |2254 |2990 |2990 |   0 |  0 |   0 |   0 | 2.511434e+07 | 1.794413e+07 |  39.96%| unknown
  4.8s|     1 |     0 |  1149 |     - |   586M |   0 |2254 |2990 |2997 |   7 |  1 |   0 |   0 | 2.494178e+07 | 1.794413e+07 |  39.00%| unknown
  5.0s|     1 |     0 |  1237 |     - |   591M |   0 |2254 |2990 |3004 |  14 |  2 |   0 |   0 | 2.489662e+07 | 1.794413e+07 |  38.75%| unknown
  5.3s|     1 |     0 |  1348 |     - |   595M |   0 |2254 |2990 |3008 |  18 |  3 |   0 |   0 | 2.485594e+07 | 1.794413e+07 |  38.52%| unknown
  6.0s|     1 |     0 |  1414 |     - |   598M |   0 |2254 |2990 |3011 |  21 |  4 |   0 |   0 | 2.481879e+07 | 1.794413e+07 |  38.31%| unknown
  6.3s|     1 |     0 |  1476 |     - |   601M |   0 |2254 |2990 |3014 |  24 |  5 |   0 |   0 | 2.480224e+07 | 1.794413e+07 |  38.22%| unknown
  6.7s|     1 |     0 |  1617 |     - |   604M |   0 |2254 |2990 |3019 |  29 |  6 |   0 |   0 | 2.475784e+07 | 1.794413e+07 |  37.97%| unknown
  7.2s|     1 |     0 |  1674 |     - |   607M |   0 |2254 |2990 |3023 |  33 |  7 |   0 |   0 | 2.474557e+07 | 1.794413e+07 |  37.90%| unknown
  7.4s|     1 |     0 |  1739 |     - |   609M |   0 |2254 |2990 |3029 |  39 |  8 |   0 |   0 | 2.473924e+07 | 1.794413e+07 |  37.87%| unknown
  7.8s|     1 |     0 |  1886 |     - |   612M |   0 |2254 |2990 |3032 |  42 |  9 |   0 |   0 | 2.468206e+07 | 1.794413e+07 |  37.55%| unknown
  8.2s|     1 |     0 |  2008 |     - |   616M |   0 |2254 |2990 |3034 |  44 | 10 |   0 |   0 | 2.466784e+07 | 1.794413e+07 |  37.47%| unknown
  8.3s|     1 |     0 |  2158 |     - |   618M |   0 |2254 |2990 |3040 |  50 | 11 |   0 |   0 | 2.463734e+07 | 1.794413e+07 |  37.30%| unknown
 time | node  | left  |LP iter|LP it/n|mem/heur|mdpt |vars |cons |rows |cuts |sepa|confs|strbr|  dualbound   | primalbound  |  gap   | compl. 
  8.4s|     1 |     0 |  2264 |     - |   621M |   0 |2254 |2990 |3043 |  53 | 12 |   0 |   0 | 2.462434e+07 | 1.794413e+07 |  37.23%| unknown
  8.4s|     1 |     0 |  2351 |     - |   623M |   0 |2254 |2990 |3046 |  56 | 13 |   0 |   0 | 2.461362e+07 | 1.794413e+07 |  37.17%| unknown
  8.5s|     1 |     0 |  2369 |     - |   626M |   0 |2254 |2990 |3048 |  58 | 14 |   0 |   0 | 2.461173e+07 | 1.794413e+07 |  37.16%| unknown
  8.5s|     1 |     0 |  2498 |     - |   629M |   0 |2254 |2990 |3051 |  61 | 15 |   0 |   0 | 2.458417e+07 | 1.794413e+07 |  37.00%| unknown
  8.5s|     1 |     0 |  2501 |     - |   631M |   0 |2254 |2990 |3053 |  63 | 16 |   0 |   0 | 2.458415e+07 | 1.794413e+07 |  37.00%| unknown
  8.6s|     1 |     0 |  2565 |     - |   634M |   0 |2254 |2990 |3048 |  65 | 17 |   0 |   0 | 2.456930e+07 | 1.794413e+07 |  36.92%| unknown
  8.6s|     1 |     0 |  2567 |     - |   636M |   0 |2254 |2990 |3049 |  66 | 18 |   0 |   0 | 2.456927e+07 | 1.794413e+07 |  36.92%| unknown
  8.7s|     1 |     0 |  2598 |     - |   639M |   0 |2254 |2990 |3051 |  68 | 19 |   0 |   0 | 2.456401e+07 | 1.794413e+07 |  36.89%| unknown
  8.7s|     1 |     0 |  2604 |     - |   641M |   0 |2254 |2990 |3054 |  71 | 20 |   0 |   0 | 2.456398e+07 | 1.794413e+07 |  36.89%| unknown
d 8.9s|     1 |     0 |  3371 |     - |farkasdi|   0 |2254 |2990 |3054 |   0 | 22 |   0 |   0 | 2.456398e+07 | 2.280752e+07 |   7.70%| unknown
L10.5s|     1 |     0 |  3371 |     - |    rens|   0 |2254 |2990 |3054 |  71 | 22 |   0 |   0 | 2.456398e+07 | 2.333440e+07 |   5.27%| unknown
 11.0s|     1 |     0 |  3371 |     - |   658M |   0 |2254 |2990 |3054 |  71 | 22 |   0 |   0 | 2.456398e+07 | 2.333440e+07 |   5.27%| unknown
i11.0s|     1 |     0 |  3371 |     - |  oneopt|   0 |2254 |2990 |3054 |  71 | 22 |   0 |   0 | 2.456398e+07 | 2.353683e+07 |   4.36%| unknown
 12.3s|     1 |     2 |  3371 |     - |   706M |   0 |2254 |2990 |3054 |  71 | 24 |   0 |  33 | 2.446433e+07 | 2.353683e+07 |   3.94%| unknown

SCIP Status        : problem is solved [optimal solution found]
Solving Time (sec) : 32.98
Solving Nodes      : 95
Primal Bound       : +2.35368309978821e+07 (399 solutions)
Dual Bound         : +2.35368309978821e+07
Gap                : 0.00 %
Solve Status: optimal
Solve Time: 33.04 seconds
